CPXPARAM_TimeLimit                               7200
CPXPARAM_Read_DataCheck                          1
CPXPARAM_RandomSeed                              201703173
Parallel mode: deterministic, using up to 8 threads for concurrent optimization.
Tried aggregator 1 time.
LP Presolve eliminated 338 rows and 0 columns.
Reduced LP has 14812 rows, 6001 columns, and 46424 nonzeros.
Presolve time = 0.01 sec. (8.35 ticks)

Iteration log . . .
Iteration:     1   Dual objective     =           979.000000
Perturbation started.
Iteration:   379   Dual objective     =           979.000000
Iteration:   397   Dual objective     =           979.000111
Initializing dual steep norms . . .
Iteration:   398   Dual objective     =           979.000194
Iteration:   580   Dual objective     =           979.005021
Iteration:   732   Dual objective     =           979.012961
Iteration:   880   Dual objective     =           979.015184
Iteration:  1043   Dual objective     =           979.016256
Iteration:  1189   Dual objective     =           979.018255
Iteration:  1358   Dual objective     =           979.018719
Iteration:  1514   Dual objective     =           979.022714
Iteration:  1682   Dual objective     =           979.025100
Iteration:  1855   Dual objective     =           979.027446
Iteration:  2059   Dual objective     =           979.029466
Iteration:  2255   Dual objective     =           979.033662
Iteration:  2503   Dual objective     =           979.037038
Iteration:  2758   Dual objective     =          1051.515759
Iteration:  3041   Dual objective     =          1062.970335
Iteration:  3317   Dual objective     =          1078.220368
Iteration:  3652   Dual objective     =          1078.405999
Iteration:  4016   Dual objective     =          1086.555201
Iteration:  4387   Dual objective     =          1089.147274
Iteration:  4830   Dual objective     =          1089.147282
Iteration:  5233   Dual objective     =          1092.140267
Iteration:  5529   Dual objective     =          1099.608820
Iteration:  5790   Dual objective     =          1102.563479
Iteration:  6088   Dual objective     =          1103.016745
Removing perturbation.

Barrier solved model.

